(set-info :smt-lib-version 2.6)
(set-logic QF_UFLRA)
(set-info :source |
MathSat group

|)
(set-info :category "random")
(set-info :status sat)
(declare-fun x0 () Real)
(declare-fun x1 () Real)
(declare-fun x2 () Real)
(declare-fun x3 () Real)
(declare-fun x4 () Real)
(declare-fun x5 () Real)
(declare-fun x6 () Real)
(declare-fun x7 () Real)
(declare-fun x8 () Real)
(declare-fun x9 () Real)
(declare-fun x10 () Real)
(declare-fun x11 () Real)
(declare-fun x12 () Real)
(declare-fun x13 () Real)
(declare-fun x14 () Real)
(declare-fun x15 () Real)
(declare-fun x16 () Real)
(declare-fun x17 () Real)
(declare-fun x18 () Real)
(declare-fun x19 () Real)
(declare-fun x20 () Real)
(declare-fun x21 () Real)
(declare-fun x22 () Real)
(declare-fun x23 () Real)
(declare-fun x24 () Real)
(declare-fun x25 () Real)
(declare-fun x26 () Real)
(declare-fun x27 () Real)
(declare-fun x28 () Real)
(declare-fun x29 () Real)
(declare-fun x30 () Real)
(declare-fun x31 () Real)
(declare-fun x32 () Real)
(declare-fun x33 () Real)
(declare-fun x34 () Real)
(declare-fun x35 () Real)
(declare-fun x36 () Real)
(declare-fun x37 () Real)
(declare-fun x38 () Real)
(declare-fun x39 () Real)
(declare-fun x40 () Real)
(declare-fun x41 () Real)
(declare-fun x42 () Real)
(declare-fun x43 () Real)
(declare-fun x44 () Real)
(declare-fun x45 () Real)
(declare-fun x46 () Real)
(declare-fun x47 () Real)
(declare-fun x48 () Real)
(declare-fun x49 () Real)
(declare-fun f0_1 (Real) Real)
(declare-fun f0_2 (Real Real) Real)
(declare-fun f0_3 (Real Real Real) Real)
(declare-fun f0_4 (Real Real Real Real) Real)
(declare-fun P0 () Bool)
(declare-fun P1 () Bool)
(declare-fun P2 () Bool)
(declare-fun P3 () Bool)
(declare-fun P4 () Bool)
(declare-fun P5 () Bool)
(declare-fun P6 () Bool)
(declare-fun P7 () Bool)
(declare-fun P8 () Bool)
(declare-fun P9 () Bool)
(declare-fun P10 () Bool)
(declare-fun P11 () Bool)
(declare-fun P12 () Bool)
(declare-fun P13 () Bool)
(declare-fun P14 () Bool)
(declare-fun P15 () Bool)
(declare-fun P16 () Bool)
(declare-fun P17 () Bool)
(declare-fun P18 () Bool)
(declare-fun P19 () Bool)
(declare-fun P20 () Bool)
(declare-fun P21 () Bool)
(declare-fun P22 () Bool)
(declare-fun P23 () Bool)
(declare-fun P24 () Bool)
(declare-fun P25 () Bool)
(declare-fun P26 () Bool)
(declare-fun P27 () Bool)
(declare-fun P28 () Bool)
(declare-fun P29 () Bool)
(declare-fun P30 () Bool)
(declare-fun P31 () Bool)
(declare-fun P32 () Bool)
(declare-fun P33 () Bool)
(declare-fun P34 () Bool)
(declare-fun P35 () Bool)
(declare-fun P36 () Bool)
(declare-fun P37 () Bool)
(declare-fun P38 () Bool)
(declare-fun P39 () Bool)
(declare-fun P40 () Bool)
(declare-fun P41 () Bool)
(declare-fun P42 () Bool)
(declare-fun P43 () Bool)
(declare-fun P44 () Bool)
(declare-fun P45 () Bool)
(declare-fun P46 () Bool)
(declare-fun P47 () Bool)
(declare-fun P48 () Bool)
(declare-fun P49 () Bool)
(assert (let ((?v_115 (* 11 x46)) (?v_35 (distinct (- (+ (* 12 x33) (* 25 x25)) (* 10 x32)) 22)) (?v_32 (* 5 x42)) (?v_91 (< (- (- (* 11 x31) (* 3 x11)) (* 17 x8)) 18)) (?v_104 (< (- (+ (* 17 x40) (* 2 x47)) (* 14 x47)) 18)) (?v_46 (< (+ (- (* 11 x44) (* 11 x48)) (* 17 x41)) 12)) (?v_92 (< (- (- (* 10 x21) (* 2 x42)) (* 13 x44)) 20)) (?v_139 (< (+ (- (* 26 x15) (* 18 x37)) (* 2 x9)) 23)) (?v_144 (< (+ (- (* 8 x6) (* 10 x36)) (* 7 x44)) 11))) (let ((?v_136 (distinct (+ (- ?v_115 (* 27 x41)) (* 23 x43)) 3)) (?v_152 (= x18 (f0_2 x22 x7))) (?v_1 (= (f0_2 x13 x35) (f0_2 x36 x3))) (?v_107 (distinct x45 x43)) (?v_56 (distinct (f0_2 x35 x9) x41)) (?v_50 (distinct (f0_1 x15) x4)) (?v_10 (= (f0_1 x13) (f0_2 x49 x45))) (?v_0 (f0_1 x37))) (let ((?v_95 (distinct x42 ?v_0)) (?v_11 (f0_1 x19))) (let ((?v_30 (distinct ?v_11 (f0_2 x24 x19))) (?v_212 (= (f0_2 x1 x10) (f0_2 x28 x33))) (?v_112 (distinct x24 x31)) (?v_19 (distinct x33 x28)) (?v_90 (f0_1 x36))) (let ((?v_36 (= ?v_90 x20)) (?v_63 (f0_1 x14))) (let ((?v_21 (distinct x36 ?v_63)) (?v_12 (distinct (f0_1 x10) x13)) (?v_102 (= (f0_1 x41) x31)) (?v_119 (distinct x4 x12)) (?v_60 (= x23 x4)) (?v_86 (= (f0_2 x26 x46) x22)) (?v_85 (= (f0_1 x8) x1)) (?v_138 (= x5 x18)) (?v_123 (= (f0_2 x11 x4) x13)) (?v_26 (= (f0_1 x43) x6)) (?v_55 (distinct x26 (f0_2 x2 x31))) (?v_29 (distinct (f0_1 x28) (f0_1 x26))) (?v_13 (f0_1 x20)) (?v_103 (f0_1 x35))) (let ((?v_178 (= ?v_13 ?v_103)) (?v_248 (distinct x44 x24)) (?v_130 (distinct (f0_1 x39) x38)) (?v_106 (f0_1 x44))) (let ((?v_16 (= ?v_106 x18)) (?v_223 (distinct x31 (f0_2 x34 x14))) (?v_111 (= (f0_1 x47) x22)) (?v_62 (f0_1 x46))) (let ((?v_179 (= ?v_62 ?v_63)) (?v_149 (distinct ?v_90 x25)) (?v_140 (f0_1 x4))) (let ((?v_193 (= ?v_140 (f0_2 x12 x24))) (?v_20 (f0_1 x22))) (let ((?v_99 (distinct ?v_140 ?v_20)) (?v_71 (= x42 (f0_2 x14 x34))) (?v_240 (distinct ?v_62 ?v_103)) (?v_176 (= ?v_20 x24)) (?v_156 (distinct (f0_2 x30 x1) ?v_106)) (?v_181 (distinct (f0_1 x32) ?v_62)) (?v_7 (distinct (f0_2 x0 x5) x9)) (?v_189 (distinct (f0_2 x9 x24) (f0_2 x17 x4))) (?v_47 (= (f0_1 x30) (f0_1 x49))) (?v_51 (= (f0_2 x9 x29) (f0_1 x11))) (?v_6 (= (f0_2 x44 x21) ?v_13)) (?v_58 (distinct x27 (f0_2 x23 x49))) (?v_44 (= ?v_11 (f0_2 x30 x3))) (?v_129 (distinct (f0_2 x37 x18) (f0_2 x25 x3))) (?v_66 (distinct (f0_2 x10 x5) (f0_1 x42))) (?v_251 (distinct x14 (f0_2 x25 x4))) (?v_42 (= x2 ?v_0))) (let ((?v_98 (not ?v_51)) (?v_81 (not P42)) (?v_208 (not P18)) (?v_31 (not P14)) (?v_162 (not P8)) (?v_8 (not ?v_91)) (?v_9 (not P28)) (?v_3 (not P27)) (?v_84 (not ?v_46)) (?v_150 (not ?v_181)) (?v_25 (not ?v_1)) (?v_228 (not ?v_36)) (?v_70 (not ?v_176)) (?v_5 (not P10)) (?v_192 (not P41)) (?v_34 (not P20)) (?v_57 (not P23)) (?v_142 (not ?v_144)) (?v_197 (not ?v_56)) (?v_186 (not P19)) (?v_39 (not ?v_10)) (?v_24 (not ?v_12)) (?v_27 (not ?v_26)) (?v_45 (not ?v_50)) (?v_204 (not ?v_178)) (?v_160 (not P6)) (?v_128 (not P47)) (?v_17 (not P4)) (?v_120 (not ?v_123)) (?v_121 (not P9)) (?v_165 (not ?v_130)) (?v_154 (not ?v_223)) (?v_80 (not P5)) (?v_158 (not P17)) (?v_33 (not P11)) (?v_200 (not ?v_47)) (?v_40 (not ?v_189)) (?v_78 (not ?v_92)) (?v_53 (not P36)) (?v_76 (not ?v_107)) (?v_82 (not ?v_29)) (?v_64 (not ?v_119)) (?v_61 (not P37)) (?v_89 (not ?v_42)) (?v_49 (not ?v_139)) (?v_235 (not ?v_60)) (?v_148 (not P39)) (?v_172 (not P3)) (?v_191 (not P2)) (?v_153 (not ?v_248)) (?v_199 (not ?v_55)) (?v_77 (not ?v_58)) (?v_125 (not P29)) (?v_169 (not P49)) (?v_210 (not P16)) (?v_173 (not ?v_66)) (?v_126 (not P35)) (?v_97 (not ?v_71)) (?v_190 (not ?v_136)) (?v_101 (not P21)) (?v_131 (not ?v_6)) (?v_182 (not P15)) (?v_168 (not ?v_102)) (?v_171 (not ?v_21)) (?v_185 (not ?v_86)) (?v_174 (not P32)) (?v_222 (not ?v_149)) (?v_100 (not P22)) (?v_206 (not ?v_7)) (?v_164 (not P0)) (?v_122 (not ?v_95)) (?v_166 (not P43)) (?v_137 (not ?v_240)) (?v_127 (not ?v_104)) (?v_226 (not ?v_111)) (?v_243 (not ?v_152)) (?v_180 (not ?v_16)) (?v_135 (not ?v_44)) (?v_161 (not ?v_138))) (let ((?v_255 (or ?v_144 ?v_77)) (?v_163 (not P12)) (?v_175 (not ?v_251)) (?v_157 (not P26)) (?v_259 (not P24)) (?v_195 (not ?v_129)) (?v_159 (not P45)) (?v_184 (not ?v_112)) (?v_194 (not P7)) (?v_219 (not ?v_179)) (?v_234 (not ?v_156)) (?v_220 (not ?v_30)) (?v_217 (not P1)) (?v_213 (not P46)) (?v_225 (not P38)) (?v_214 (not ?v_212)) (?v_237 (not P25)) (?v_218 (not P34)) (?v_236 (not P33)) (?v_252 (not P40)) (?v_250 (not P44)) (?v_245 (not ?v_19)) (?v_257 (not P13)) (?v_241 (not ?v_99)) (?v_238 (not P30)) (?v_233 (not P31)) (?v_244 (not ?v_35)) (?v_256 (not ?v_85)) (?v_48 (distinct (+ (- (* 12 x22) 0) (* 3 x43)) 29))) (let ((?v_2 (not ?v_48)) (?v_4 (< (+ (* 9 x25) (* 6 x26)) 24)) (?v_202 (<= (- (* 16 x4) (* 21 x22)) 4))) (let ((?v_96 (not ?v_202)) (?v_116 (< (+ (* 13 x28) (* 6 x16) (* 9 x24)) 24)) (?v_118 (<= (+ (* 8 x7) (* 19 x8) (* 7 x30)) 0)) (?v_88 (< (- (* 6 x1) (* 3 x49)) 1)) (?v_134 (distinct (+ (* 6 x20) (* 11 x14)) 26))) (let ((?v_110 (not ?v_134)) (?v_133 (not ?v_118)) (?v_203 (not ?v_88)) (?v_229 (not ?v_4)) (?v_18 (<= (+ (* (- 20) x12) (* 15 x12) (* 4 x1)) (- 3))) (?v_69 (<= (- (+ (* (- 22) x19) (* 3 x4)) (* 9 x1)) (- 28))) (?v_41 (< (+ (- (* 6 x40) ?v_32) (* 4 x18)) (- 28)))) (let ((?v_23 (not ?v_41)) (?v_146 (< (+ (* 12 x31) (* 14 x34)) (- 10))) (?v_216 (<= (+ (- 0 (* 7 x9)) x44) (- 1)))) (let ((?v_145 (not ?v_216)) (?v_141 (< (- (- (* (- 5) x15) (* 8 x13)) (* 21 x35)) 24))) (let ((?v_59 (not ?v_141)) (?v_109 (<= (- (- (* (- 15) x4) (* 3 x14)) (* 25 x29)) 16)) (?v_87 (< (- (* (- 19) x45) (* 4 x19)) 25)) (?v_65 (<= (- (+ (* 8 x33) (* 9 x38)) (* 3 x1)) (- 3))) (?v_151 (distinct (+ (* 7 x24) (* 15 x16) (* 16 x7)) (- 2)))) (let ((?v_113 (not ?v_151)) (?v_14 (< (+ (- 0 (* 17 x45)) (* 12 x1)) (- 13))) (?v_22 (= (+ (- (* (- 24) x6) (* 27 x16)) (* 15 x14)) 10)) (?v_38 (<= (+ (* 3 x24) (* 10 x27) (* 11 x25)) (- 7)))) (let ((?v_253 (not ?v_38)) (?v_43 (< (- (+ (* 21 x7) (* 8 x5)) (* 16 x21)) (- 13)))) (let ((?v_124 (not ?v_43)) (?v_54 (<= (- (+ (* (- 19) x25) (* 13 x15)) (* 19 x36)) (- 14))) (?v_227 (not ?v_14)) (?v_15 (< (+ (* (- 5) x39) (* 14 x45) (* 8 x4)) 3))) (let ((?v_28 (not ?v_15)) (?v_105 (<= (+ (- (* (- 24) x4) (* 10 x11)) (* 2 x33)) 0)) (?v_52 (not ?v_18)) (?v_79 (< (- (- (* 23 x30) (* 12 x10)) (* 10 x12)) (- 15))) (?v_37 (< (- (- (* (- 11) x20) (* 22 x11)) (* 5 x16)) 23))) (let ((?v_209 (not ?v_37)) (?v_249 (< (+ (* (- 26) x2) (* 13 x32) (* 23 x35)) (- 7)))) (let ((?v_147 (not ?v_249)) (?v_73 (< (+ (* (- 17) x42) (* 6 x19) ?v_32) 28))) (let ((?v_239 (not ?v_73)) (?v_68 (<= (+ (- (* 16 x30) 0) (* 25 x19)) (- 6)))) (let ((?v_94 (not ?v_68)) (?v_155 (< (- (+ (* 15 x49) (* 11 x2)) (* 26 x47)) (- 16)))) (let ((?v_75 (not ?v_155)) (?v_67 (< (+ (- (* (- 26) x20) (* 4 x6)) (* 21 x29)) (- 17))) (?v_177 (< (+ (* (- 8) x23) (* 7 x5) (* 7 x27)) (- 9)))) (let ((?v_72 (not ?v_177)) (?v_74 (<= (+ (- (* (- 20) x28) (* 17 x4)) (* 16 x24)) 15)) (?v_93 (< (- (- (* (- 27) x33) (* 19 x7)) (* 24 x38)) (- 13))) (?v_114 (not ?v_67)) (?v_83 (<= (- (* (- 18) x29) (* 16 x6)) (- 1))) (?v_117 (< (- (- (* 17 x37) (* 12 x35)) (* 25 x2)) (- 26)))) (let ((?v_108 (not ?v_117)) (?v_167 (not ?v_79)) (?v_143 (not ?v_87)) (?v_231 (< (- (+ (* (- 9) x37) (* 9 x29)) (* 5 x28)) 26))) (let ((?v_187 (not ?v_231)) (?v_132 (<= (+ (- (* (- 11) x34) (* 20 x33)) x48) (- 6))) (?v_232 (not ?v_93)) (?v_183 (not ?v_105)) (?v_221 (not ?v_65)) (?v_188 (<= (+ (- (* (- 27) x16) (* 25 x4)) ?v_115) (- 8)))) (let ((?v_211 (not ?v_188)) (?v_224 (not ?v_74)) (?v_201 (not ?v_54)) (?v_205 (<= (+ (- 0 (* 5 x35)) (* 5 x4)) (- 18)))) (let ((?v_246 (not ?v_205)) (?v_170 (< (- (- (* (- 15) x14) (* 26 x48)) (* 4 x9)) (- 26))) (?v_207 (< (- (+ (* (- 5) x19) (* 20 x17)) (* 18 x6)) (- 24))) (?v_242 (not ?v_69)) (?v_198 (not ?v_146))) (let ((?v_254 (not ?v_170)) (?v_215 (not ?v_109)) (?v_196 (not ?v_83)) (?v_230 (not ?v_22)) (?v_258 (not ?v_132)) (?v_247 (not ?v_207))) (and (and (and (and (and (and (and (and (and (and (and (and (and (and (and (and (and (and (and (and (and (and (and (and (and (and (and (and (and (and (and (and (and (and (and (and (and (and (and (and (and (and (and (and (and (and (and (and (and (and (and (and (and (and (and (and (and (and (and (and (and (and (and (and (and (and (and (and (and (and (and (and (and (and (and (and (and (and (and (and (and (and (and (and (and (and (and (and (and (and (and (and (and (and (and (and (and (and (and (and (and (and (and (and (and (and (and (and (and (and (and (and (and (and (and (and (and (and (and (and (and (and (and (and (and (and (and (and (and (and (and (and (and (and (and (and (and (and (and (and (and (and (and (and (and (and (and (and (and (and (and (and (and (and (and (and (and (and (and (and (and (and (and (and (and (and (and (and (and (and (and (and (and (and (and (and (and (and (and (and (and (and (and (and (and (and (and (and (and (and (and (and (and (and (and (and (and (and (and (and (and (and (and (and (and (and (and (and (and (and (and (and (and (and (and (and (and (and (and (and (and (and (and (and (and (and (and (and (and (and (and (and (and (and (and (and (and (and (and (and (and (and (and (and (and (and (and (and (and (and (and (and (and (and (and (and (and (and (and (and (and (and (and (and (and (and (and (and (and (and (and (and (and (and (and (and (and (and (and (and (and (and (and (and (and (and (and (and (and (and (and (and (and (and (and (and (and (and (and (and (and (and (and (and (and (and (and (and (and (and (and (and (and (and (and (and (and (and (and (and (and (and (and (and (and (and (and (and (and (and (and (and (and (and (and (and (and (and (and (and (and (and (and (and (and (and (and (and (and (and (and (and (and (and (and (and (and (and (and (and (and (and (and (and (and (and (and (and (and (and (and (and (and (and (and (and (and (and (and (and (and (and (and (and (and (and (and (and (and (and (and (and (and (and (and (and (and (and (and (and (and (and (and (and (and (and (and (and (and (and (and (and (and (and (and (and (and (and (and (and (and (and (and (and (and (and (and (and (and (and (and (and (and (and (and (and (and (and (and (and (and (and (and (and (and (and (and (and (and (and (and (and (and (and (and (and (and (and (and (and (and (and (and (and (and (and (and (and (and (and (and (and (and (and (and (and (and (and (and (and (and (and (and (and (and (and (and (and (and (and (and (and (and (and (and (and (and (and (and (and (and (and (and (and (and (and (and (and (and (and (and (and (and (and (and (and (and (and (and (and (and (and (and (and (and (and (and (and (and (and (and (and (and (and (and (and (and (and (and (and (and (and (and (and (and (and (and (and (and (and (and (and (and (and (and (and (and (and (and (and (and (and (and (and (and (and (and (and (and (and (and (and (and (and (and (and (and (and (and (and (and (and (and (and (and (and (and (and (and (and (and (and (and (and (and (and (and (and (and (or (or ?v_18 ?v_98) P14) (or (or P3 ?v_69) ?v_95)) (or (or ?v_81 ?v_6) ?v_208)) (or (or ?v_23 ?v_146) ?v_31)) (or (or ?v_21 ?v_19) ?v_35)) (or (or ?v_145 ?v_162) ?v_59)) (or (or ?v_8 ?v_109) ?v_86)) (or (or ?v_9 ?v_42) P2)) (or (or ?v_87 ?v_3) ?v_111)) (or (or ?v_104 P35) ?v_71)) (or (or P6 ?v_65) ?v_138)) (or (or ?v_84 ?v_2) ?v_113)) (or (or ?v_150 ?v_1) ?v_4)) (or (or ?v_16 ?v_25) ?v_228)) (or (or ?v_2 ?v_70) ?v_5)) (or (or ?v_12 ?v_3) ?v_14)) (or (or ?v_192 ?v_34) ?v_57)) (or (or ?v_142 P28) ?v_7)) (or (or ?v_4 ?v_197) ?v_186)) (or (or ?v_5 ?v_6) ?v_22)) (or (or P11 ?v_6) ?v_55)) (or (or ?v_7 ?v_44) P30)) (or (or ?v_8 ?v_253) ?v_9)) (or (or ?v_39 ?v_124) P2)) (or (or ?v_10 ?v_30) ?v_54)) (or (or ?v_24 ?v_27) ?v_45)) (or (or P33 ?v_204) ?v_160)) (or (or ?v_227 ?v_15) ?v_128)) (or (or P27 ?v_17) ?v_28)) (or (or ?v_120 ?v_121) ?v_105)) (or (or ?v_165 ?v_154) ?v_80)) (or (or P24 P10) ?v_158)) (or (or P10 ?v_33) P15)) (or (or ?v_16 ?v_17) ?v_52)) (or (or ?v_79 P18) ?v_19)) (or (or ?v_29 ?v_99) ?v_200)) (or (or ?v_21 ?v_5) ?v_22)) (or (or ?v_23 ?v_24) ?v_40)) (or (or ?v_25 ?v_78) ?v_96)) (or (or ?v_26 P48) P35)) (or (or ?v_27 ?v_18) P33)) (or (or ?v_28 ?v_53) ?v_76)) (or (or P29 ?v_209) ?v_147)) (or (or P20 ?v_82) P10)) (or (or ?v_30 P35) P29)) (or (or ?v_31 ?v_239) ?v_6)) (or (or ?v_33 P19) P36)) (or (or P47 ?v_34) ?v_10)) (or (or ?v_116 P9) ?v_35)) (or (or ?v_36 ?v_8) ?v_129)) (or (or P40 ?v_37) P3)) (or (or ?v_38 ?v_85) ?v_94)) (or (or ?v_64 ?v_75) ?v_61)) (or (or P15 ?v_39) ?v_40)) (or (or ?v_67 P26) ?v_41)) (or (or ?v_89 ?v_43) ?v_58)) (or (or ?v_44 ?v_118) P18)) (or (or ?v_45 P46) ?v_46)) (or (or ?v_66 ?v_49) ?v_88)) (or (or ?v_47 ?v_48) ?v_27)) (or (or P1 ?v_235) ?v_43)) (or (or ?v_49 ?v_148) ?v_172)) (or (or ?v_50 P28) ?v_51)) (or (or ?v_110 ?v_52) P1)) (or (or ?v_53 ?v_54) ?v_191)) (or (or ?v_153 ?v_199) P29)) (or (or ?v_72 ?v_56) ?v_57)) (or (or P43 P14) ?v_77)) (or (or ?v_59 ?v_74) ?v_60)) (or (or ?v_125 ?v_16) P13)) (or (or ?v_61 ?v_169) ?v_179)) (or (or ?v_93 ?v_210) ?v_64)) (or (or ?v_65 ?v_173) ?v_28)) (or (or ?v_126 ?v_67) ?v_66)) (or (or ?v_68 ?v_47) ?v_15)) (or (or ?v_35 ?v_6) ?v_69)) (or (or ?v_70 ?v_5) ?v_97)) (or (or ?v_72 ?v_190) ?v_16)) (or (or ?v_73 ?v_114) ?v_7)) (or (or ?v_74 ?v_75) ?v_29)) (or (or ?v_47 ?v_76) ?v_77)) (or (or ?v_83 ?v_57) P13)) (or (or ?v_49 ?v_101) ?v_108)) (or (or ?v_78 ?v_45) ?v_33)) (or (or ?v_5 ?v_167) P38)) (or (or ?v_131 ?v_182) P14)) (or (or ?v_80 ?v_81) ?v_168)) (or (or ?v_6 ?v_82) ?v_50)) (or (or ?v_83 ?v_84) ?v_76)) (or (or ?v_171 ?v_83) ?v_67)) (or (or P41 ?v_57) ?v_85)) (or (or ?v_185 P36) ?v_143)) (or (or ?v_88 ?v_50) ?v_55)) (or (or P22 ?v_89) ?v_27)) (or (or ?v_31 ?v_174) ?v_23)) (or (or ?v_222 ?v_187) P5)) (or (or ?v_132 ?v_91) ?v_112)) (or (or ?v_92 ?v_100) ?v_206)) (or (or ?v_164 ?v_232) ?v_94)) (or (or P20 ?v_122) ?v_29)) (or (or ?v_96 P24) ?v_97)) (or (or ?v_98 ?v_99) P5)) (or (or ?v_100 ?v_34) ?v_101)) (or (or ?v_29 ?v_166) ?v_102)) (or (or ?v_33 P18) ?v_85)) (or (or ?v_137 ?v_9) ?v_100)) (or (or ?v_127 ?v_57) P46)) (or (or P13 ?v_2) P27)) (or (or P38 ?v_49) P8)) (or (or P49 ?v_183) ?v_92)) (or (or P43 P31) ?v_35)) (or (or ?v_156 P12) ?v_8)) (or (or ?v_47 ?v_53) ?v_61)) (or (or ?v_107 ?v_108) P23)) (or (or ?v_21 ?v_221) ?v_109)) (or (or P15 P32) ?v_110)) (or (or ?v_226 ?v_112) ?v_113)) (or (or ?v_114 ?v_211) P25)) (or (or ?v_116 ?v_243) ?v_117)) (or (or ?v_3 ?v_133) ?v_119)) (or (or ?v_40 ?v_53) ?v_83)) (or (or ?v_120 ?v_109) ?v_180)) (or (or ?v_77 P49) ?v_121)) (or (or ?v_122 P43) ?v_118)) (or (or ?v_123 ?v_104) P47)) (or (or ?v_124 ?v_125) ?v_126)) (or (or ?v_12 ?v_64) ?v_127)) (or (or ?v_7 ?v_128) ?v_37)) (or (or ?v_43 ?v_74) ?v_135)) (or (or ?v_129 ?v_130) ?v_131)) (or (or ?v_124 ?v_132) ?v_119)) (or (or ?v_133 ?v_134) ?v_34)) (or (or ?v_128 ?v_135) ?v_33)) (or (or ?v_136 ?v_43) ?v_137)) (or (or P33 ?v_224) P28)) (or (or ?v_132 ?v_49) ?v_135)) (or (or ?v_161 ?v_68) ?v_139)) (or (or ?v_48 ?v_193) ?v_97)) (or (or ?v_121 ?v_126) ?v_15)) (or (or ?v_141 ?v_76) P11)) (or (or ?v_18 ?v_142) ?v_101)) (or (or ?v_108 ?v_143) P28)) (or (or ?v_73 P7) ?v_57)) (or ?v_255 ?v_145)) (or (or ?v_97 ?v_117) ?v_146)) (or (or ?v_138 ?v_118) ?v_201)) (or (or ?v_246 ?v_36) ?v_147)) (or (or ?v_9 ?v_117) ?v_65)) (or (or ?v_91 P29) ?v_44)) (or (or ?v_85 ?v_148) ?v_149)) (or (or ?v_46 ?v_150) ?v_151)) (or (or ?v_152 ?v_170) ?v_113)) (or (or ?v_153 ?v_207) ?v_154)) (or (or ?v_163 ?v_17) ?v_154)) (or (or ?v_102 ?v_75) ?v_6)) (or (or ?v_175 ?v_155) ?v_61)) (or (or ?v_93 P39) ?v_84)) (or (or ?v_157 ?v_259) ?v_104)) (or (or ?v_126 P46) ?v_156)) (or (or ?v_157 (not ?v_116)) ?v_25)) (or (or P20 ?v_242) ?v_100)) (or (or ?v_195 ?v_149) ?v_54)) (or (or ?v_21 ?v_159) ?v_92)) (or (or P24 ?v_158) ?v_159)) (or (or ?v_160 ?v_104) ?v_1)) (or (or ?v_75 ?v_35) ?v_18)) (or (or ?v_117 ?v_184) P5)) (or (or ?v_161 ?v_81) ?v_52)) (or (or ?v_94 P26) ?v_80)) (or (or ?v_198 P29) ?v_162)) (or (or ?v_75 ?v_163) ?v_164)) (or (or ?v_165 ?v_166) ?v_167)) (or (or ?v_34 ?v_168) ?v_169)) (or (or P1 ?v_55) ?v_30)) (or (or ?v_254 ?v_44) ?v_171)) (or (or P22 ?v_101) ?v_172)) (or (or ?v_173 ?v_174) P31)) (or (or ?v_97 ?v_134) ?v_132)) (or (or ?v_29 ?v_50) ?v_144)) (or (or ?v_175 ?v_26) ?v_176)) (or (or ?v_148 ?v_88) P3)) (or (or ?v_15 P14) ?v_194)) (or (or ?v_117 ?v_177) P7)) (or (or ?v_53 ?v_178) ?v_219)) (or (or ?v_135 ?v_49) ?v_170)) (or (or ?v_138 ?v_161) P42)) (or (or ?v_150 ?v_180) ?v_131)) (or (or ?v_181 P44) ?v_182)) (or (or ?v_104 ?v_183) P41)) (or (or ?v_159 ?v_82) ?v_15)) (or (or ?v_184 ?v_142) P34)) (or (or P44 ?v_3) P30)) (or (or ?v_165 ?v_185) P15)) (or (or ?v_130 ?v_186) ?v_116)) (or (or P22 P33) ?v_114)) (or (or ?v_187 ?v_188) ?v_215)) (or (or ?v_35 ?v_196) ?v_158)) (or (or ?v_152 ?v_14) ?v_119)) (or (or ?v_101 ?v_28) ?v_132)) (or (or ?v_181 ?v_153) P3)) (or (or ?v_41 ?v_16) ?v_132)) (or (or ?v_48 ?v_99) P4)) (or (or ?v_203 ?v_151) ?v_189)) (or (or ?v_147 ?v_45) ?v_3)) (or (or ?v_12 ?v_190) ?v_49)) (or (or ?v_191 ?v_192) ?v_193)) (or (or ?v_12 ?v_100) ?v_187)) (or (or P21 ?v_129) ?v_163)) (or (or ?v_194 ?v_138) P9)) (or (or ?v_234 P15) ?v_4)) (or (or ?v_31 ?v_135) P8)) (or (or ?v_125 ?v_129) ?v_12)) (or (or ?v_195 ?v_73) ?v_80)) (or (or ?v_196 ?v_10) ?v_180)) (or (or ?v_197 ?v_184) ?v_7)) (or (or ?v_139 ?v_81) ?v_220)) (or (or ?v_130 P12) P10)) (or (or ?v_198 ?v_69) ?v_196)) (or (or ?v_199 ?v_200) P41)) (or (or ?v_201 ?v_59) ?v_126)) (or (or ?v_68 ?v_153) ?v_48)) (or (or ?v_217 ?v_202) ?v_203)) (or (or ?v_6 ?v_127) ?v_213)) (or (or ?v_204 ?v_177) ?v_85)) (or (or ?v_200 ?v_152) ?v_205)) (or (or ?v_212 ?v_206) ?v_198)) (or (or P42 ?v_207) ?v_208)) (or (or ?v_225 ?v_9) ?v_147)) (or (or ?v_121 ?v_209) ?v_48)) (or (or ?v_210 ?v_150) ?v_211)) (or (or ?v_53 ?v_214) ?v_207)) (or (or ?v_113 P48) ?v_143)) (or (or ?v_230 ?v_213) ?v_190)) (or (or ?v_172 ?v_194) ?v_214)) (or (or ?v_19 P8) P16)) (or (or ?v_67 ?v_155) ?v_26)) (or (or ?v_25 ?v_215) ?v_178)) (or (or ?v_81 P38) P26)) (or (or ?v_37 P19) P42)) (or (or ?v_205 ?v_8) P21)) (or (or ?v_40 ?v_166) ?v_137)) (or (or P43 ?v_60) ?v_7)) (or (or ?v_64 ?v_3) P33)) (or (or ?v_137 ?v_65) ?v_76)) (or (or ?v_78 ?v_184) ?v_237)) (or (or ?v_163 ?v_124) P38)) (or (or P31 ?v_172) P22)) (or (or P43 P32) ?v_107)) (or (or ?v_42 ?v_208) ?v_218)) (or (or ?v_30 ?v_57) ?v_45)) (or (or ?v_216 ?v_216) ?v_174)) (or (or ?v_107 ?v_194) ?v_176)) (or (or P44 ?v_27) ?v_34)) (or (or P29 P4) (not P48))) (or (or P30 ?v_217) ?v_218)) (or (or P47 ?v_96) ?v_83)) (or (or ?v_208 P39) ?v_187)) (or (or ?v_91 P33) ?v_157)) (or (or ?v_219 ?v_120) ?v_236)) (or (or ?v_94 P37) P12)) (or (or ?v_76 ?v_70) ?v_104)) (or (or P28 ?v_258) ?v_123)) (or (or ?v_95 ?v_220) ?v_92)) (or (or ?v_8 ?v_88) ?v_220)) (or (or ?v_215 ?v_216) ?v_95)) (or (or ?v_74 ?v_127) ?v_196)) (or (or ?v_86 ?v_175) ?v_196)) (or (or ?v_148 ?v_107) ?v_138)) (or (or P46 P47) ?v_199)) (or (or ?v_205 ?v_44) P49)) (or (or ?v_252 ?v_80) ?v_211)) (or (or ?v_24 ?v_71) P42)) (or (or ?v_250 ?v_205) ?v_118)) (or (or ?v_245 ?v_221) ?v_207)) (or (or P48 ?v_86) ?v_84)) (or (or ?v_96 ?v_160) ?v_7)) (or (or P11 ?v_4) ?v_222)) (or (or ?v_172 ?v_223) ?v_224)) (or (or ?v_8 ?v_196) ?v_117)) (or (or ?v_120 ?v_97) ?v_162)) (or (or ?v_257 ?v_198) ?v_57)) (or (or ?v_64 ?v_51) ?v_181)) (or (or ?v_241 ?v_225) ?v_118)) (or (or ?v_223 ?v_15) ?v_226)) (or (or ?v_227 ?v_16) P40)) (or (or ?v_1 ?v_43) ?v_238)) (or (or ?v_131 ?v_73) P10)) (or (or ?v_85 ?v_127) ?v_67)) (or (or P9 ?v_65) ?v_186)) (or (or ?v_89 ?v_186) ?v_31)) (or (or ?v_138 ?v_176) ?v_117)) (or (or ?v_214 ?v_157) P32)) (or (or ?v_67 P44) P43)) (or (or P14 ?v_148) ?v_92)) (or (or ?v_82 P21) ?v_114)) (or (or ?v_199 ?v_31) ?v_10)) (or (or ?v_169 P3) ?v_155)) (or (or ?v_202 ?v_47) ?v_99)) (or (or P18 ?v_174) ?v_177)) (or (or ?v_23 ?v_204) ?v_94)) (or (or ?v_34 ?v_22) ?v_228)) (or (or ?v_217 ?v_152) ?v_37)) (or (or ?v_118 ?v_21) ?v_110)) (or (or ?v_70 ?v_229) P13)) (or (or ?v_149 ?v_65) ?v_33)) (or (or ?v_247 ?v_68) ?v_72)) (or (or ?v_42 P38) ?v_18)) (or (or ?v_205 ?v_207) ?v_179)) (or (or P26 ?v_149) ?v_161)) (or (or ?v_168 P33) P5)) (or (or ?v_121 ?v_49) ?v_36)) (or (or ?v_70 ?v_104) ?v_229)) (or (or ?v_86 ?v_170) ?v_169)) (or (or ?v_233 ?v_122) ?v_116)) (or (or ?v_67 ?v_9) ?v_100)) (or (or P23 ?v_93) ?v_230)) (or (or P0 ?v_82) ?v_124)) (or (or P37 ?v_195) ?v_50)) (or (or ?v_216 ?v_107) ?v_85)) (or (or ?v_231 ?v_232) P43)) (or (or ?v_147 ?v_46) ?v_233)) (or (or ?v_128 ?v_209) ?v_39)) (or (or ?v_79 ?v_80) ?v_230)) (or (or P7 ?v_57) ?v_117)) (or (or ?v_234 P37) ?v_92)) (or (or ?v_235 ?v_196) ?v_236)) (or (or ?v_233 ?v_187) ?v_118)) (or (or ?v_185 ?v_232) ?v_114)) (or (or ?v_4 ?v_237) ?v_153)) (or (or P8 ?v_77) P46)) (or (or P33 P10) ?v_136)) (or (or ?v_133 P42) ?v_141)) (or (or ?v_184 P12) ?v_124)) (or (or ?v_211 ?v_56) ?v_118)) (or (or ?v_211 P12) ?v_192)) (or (or ?v_97 ?v_121) P24)) (or (or P4 ?v_178) ?v_19)) (or (or ?v_85 ?v_74) ?v_55)) (or (or ?v_238 ?v_67) ?v_71)) (or (or ?v_107 ?v_59) ?v_229)) (or (or ?v_69 ?v_130) ?v_7)) (or (or ?v_194 ?v_38) ?v_127)) (or (or ?v_239 ?v_220) ?v_219)) (or (or ?v_177 ?v_222) ?v_66)) (or (or ?v_221 ?v_176) ?v_36)) (or (or P36 ?v_56) ?v_178)) (or (or ?v_223 P39) P0)) (or (or P44 P1) ?v_167)) (or (or P33 ?v_12) P39)) (or (or ?v_190 ?v_168) ?v_146)) (or (or ?v_128 P49) ?v_102)) (or (or P49 ?v_127) ?v_244)) (or (or ?v_86 ?v_48) ?v_78)) (or (or ?v_64 P8) ?v_71)) (or (or ?v_211 ?v_116) ?v_1)) (or (or ?v_117 ?v_169) ?v_167)) (or (or ?v_70 ?v_194) ?v_203)) (or (or ?v_10 ?v_209) ?v_180)) (or (or ?v_21 P31) P49)) (or (or ?v_146 ?v_42) ?v_19)) (or (or ?v_105 ?v_57) ?v_34)) (or (or P4 P8) P19)) (or (or P24 P43) ?v_181)) (or (or ?v_185 ?v_16) ?v_27)) (or (or ?v_23 ?v_2) ?v_238)) (or (or ?v_240 ?v_10) ?v_108)) (or (or ?v_123 ?v_210) ?v_112)) (or (or ?v_3 ?v_235) ?v_241)) (or (or ?v_137 ?v_27) ?v_67)) (or (or P9 ?v_145) P48)) (or (or ?v_139 ?v_151) ?v_91)) (or (or ?v_97 P36) ?v_77)) (or (or ?v_17 ?v_126) ?v_9)) (or (or ?v_127 ?v_228) ?v_137)) (or (or ?v_61 ?v_230) ?v_162)) (or (or P10 ?v_163) P35)) (or (or ?v_113 ?v_125) ?v_192)) (or (or ?v_179 ?v_100) ?v_122)) (or (or P32 ?v_154) ?v_242)) (or (or ?v_132 ?v_12) ?v_160)) (or (or ?v_16 ?v_194) P47)) (or (or ?v_199 ?v_228) P23)) (or (or ?v_107 ?v_243) ?v_244)) (or (or ?v_192 ?v_155) ?v_190)) (or (or ?v_243 P6) ?v_3)) (or (or ?v_200 ?v_17) ?v_91)) (or (or ?v_66 ?v_148) ?v_245)) (or (or ?v_228 ?v_163) ?v_210)) (or (or ?v_47 ?v_191) ?v_156)) (or (or P5 ?v_69) ?v_131)) (or (or ?v_202 ?v_211) ?v_92)) (or (or ?v_173 P43) P39)) (or (or ?v_160 ?v_27) ?v_184)) (or (or ?v_128 ?v_226) ?v_124)) (or (or ?v_47 ?v_34) ?v_162)) (or (or ?v_73 ?v_47) ?v_214)) (or (or ?v_209 ?v_44) ?v_111)) (or (or ?v_111 ?v_60) P42)) (or (or ?v_55 ?v_187) ?v_178)) (or (or ?v_41 P26) ?v_1)) (or (or ?v_226 ?v_58) ?v_143)) (or (or ?v_157 ?v_39) ?v_58)) (or (or P32 P48) ?v_8)) (or (or ?v_89 ?v_60) ?v_88)) (or (or ?v_227 ?v_208) P46)) (or (or ?v_33 ?v_81) ?v_9)) (or (or ?v_22 P5) P13)) (or (or P25 ?v_153) ?v_238)) (or (or ?v_223 ?v_86) ?v_126)) (or (or P4 ?v_43) ?v_219)) (or (or ?v_198 ?v_26) ?v_246)) (or (or ?v_211 P27) ?v_8)) (or (or ?v_206 ?v_80) ?v_143)) (or (or P24 P47) ?v_212)) (or (or ?v_25 ?v_66) ?v_12)) (or (or ?v_247 ?v_9) ?v_236)) (or (or ?v_69 P20) ?v_198)) (or (or ?v_6 ?v_53) ?v_12)) (or (or P44 ?v_138) ?v_109)) (or (or ?v_6 ?v_194) ?v_73)) (or (or ?v_176 ?v_221) ?v_228)) (or (or ?v_180 ?v_24) ?v_25)) (or (or ?v_17 ?v_159) ?v_19)) (or (or ?v_194 ?v_210) ?v_91)) (or (or ?v_21 P2) ?v_16)) (or (or ?v_117 P5) ?v_26)) (or (or P43 ?v_136) P25)) (or (or ?v_183 ?v_169) ?v_181)) (or (or ?v_230 ?v_87) ?v_194)) (or (or ?v_202 (not ?v_193)) ?v_173)) (or (or ?v_87 ?v_248) ?v_165)) (or (or P42 ?v_200) ?v_38)) (or (or ?v_129 ?v_224) P43)) (or (or ?v_36 ?v_39) P27)) (or (or ?v_200 ?v_188) ?v_160)) (or (or ?v_40 ?v_61) P49)) (or (or ?v_87 ?v_84) ?v_7)) (or (or ?v_102 ?v_153) ?v_221)) (or (or P1 ?v_249) ?v_250)) (or (or ?v_220 P16) ?v_19)) (or (or ?v_82 ?v_38) ?v_227)) (or (or ?v_124 ?v_111) ?v_42)) (or (or P42 ?v_24) ?v_169)) (or (or ?v_227 ?v_7) ?v_138)) (or (or ?v_150 ?v_251) ?v_131)) (or (or ?v_60 ?v_99) ?v_185)) (or (or ?v_158 ?v_256) ?v_19)) (or (or ?v_207 P34) P39)) (or (or ?v_227 P20) ?v_48)) (or (or ?v_236 ?v_66) P32)) (or (or ?v_242 ?v_159) ?v_245)) (or (or ?v_224 ?v_251) ?v_145)) (or (or ?v_165 ?v_186) P29)) (or (or P29 ?v_166) ?v_16)) (or (or ?v_186 ?v_203) P14)) (or (or ?v_186 ?v_152) ?v_227)) (or (or ?v_2 ?v_68) ?v_138)) (or (or ?v_120 ?v_19) ?v_163)) (or (or ?v_121 ?v_69) ?v_8)) (or (or P30 ?v_205) ?v_60)) (or (or ?v_130 ?v_113) ?v_229)) (or (or ?v_171 ?v_3) P22)) (or (or ?v_200 ?v_237) ?v_18)) (or (or ?v_166 ?v_88) ?v_23)) (or (or ?v_60 P47) ?v_107)) (or (or ?v_178 P30) P11)) (or (or P13 ?v_70) ?v_252)) (or (or ?v_70 ?v_210) ?v_227)) (or (or P47 ?v_136) ?v_46)) (or (or ?v_145 ?v_10) ?v_199)) (or (or ?v_163 ?v_226) ?v_188)) (or (or ?v_136 ?v_72) ?v_102)) (or (or ?v_139 ?v_172) ?v_232)) (or (or ?v_186 ?v_133) ?v_158)) (or (or ?v_31 ?v_70) ?v_229)) (or (or P37 ?v_205) ?v_77)) (or (or ?v_118 ?v_133) ?v_247)) (or (or ?v_249 ?v_92) ?v_177)) (or (or P16 P30) ?v_82)) (or (or ?v_110 ?v_116) ?v_234)) (or (or ?v_226 ?v_79) ?v_78)) (or (or ?v_54 P48) ?v_191)) (or (or ?v_253 ?v_234) ?v_94)) (or (or ?v_3 ?v_152) ?v_35)) (or (or ?v_165 ?v_21) ?v_254)) (or (or ?v_109 ?v_17) ?v_135)) (or (or ?v_182 ?v_203) ?v_105)) (or (or ?v_246 ?v_110) ?v_144)) (or (or ?v_34 ?v_43) ?v_116)) (or (or ?v_65 ?v_230) P34)) (or (or ?v_78 ?v_141) ?v_166)) (or (or ?v_23 ?v_247) ?v_116)) (or (or ?v_25 P1) ?v_28)) (or (or ?v_241 ?v_193) ?v_96)) (or (or ?v_73 ?v_40) ?v_219)) (or (or ?v_228 ?v_5) ?v_233)) (or (or ?v_5 ?v_181) ?v_161)) (or (or ?v_31 ?v_68) P36)) (or (or ?v_153 ?v_16) ?v_189)) (or (or ?v_16 ?v_119) ?v_28)) (or (or ?v_42 ?v_148) ?v_142)) (or (or ?v_249 ?v_5) ?v_159)) (or (or ?v_172 P46) ?v_64)) (or (or ?v_151 ?v_247) P48)) (or (or ?v_66 ?v_54) ?v_184)) (or (or ?v_117 ?v_148) ?v_9)) (or (or P43 ?v_148) P9)) (or (or ?v_242 ?v_128) ?v_254)) (or (or ?v_156 ?v_190) ?v_146)) (or (or P6 ?v_127) ?v_172)) (or (or ?v_202 ?v_130) ?v_18)) (or (or ?v_77 ?v_78) ?v_84)) (or (or ?v_243 ?v_136) ?v_66)) (or (or ?v_226 ?v_44) ?v_23)) (or (or ?v_60 ?v_54) ?v_252)) (or (or ?v_193 ?v_250) P20)) (or (or ?v_81 ?v_95) ?v_192)) (or (or ?v_102 ?v_92) ?v_159)) (or (or ?v_121 ?v_89) ?v_73)) (or (or ?v_50 ?v_190) ?v_172)) (or (or ?v_173 P31) ?v_135)) (or (or ?v_246 ?v_210) ?v_137)) (or (or ?v_154 P2) ?v_30)) (or (or ?v_132 P37) ?v_234)) (or (or P48 ?v_141) P43)) (or (or P45 ?v_201) P21)) (or (or ?v_28 ?v_61) ?v_2)) (or (or P6 ?v_51) ?v_166)) (or (or ?v_215 ?v_54) ?v_217)) (or (or ?v_123 ?v_218) ?v_198)) (or (or ?v_190 ?v_36) P44)) (or (or ?v_205 ?v_19) P13)) (or (or ?v_72 ?v_98) ?v_154)) (or (or ?v_125 ?v_77) ?v_212)) (or (or ?v_146 ?v_209) ?v_118)) (or (or ?v_22 ?v_51) ?v_131)) (or (or ?v_68 ?v_183) ?v_112)) (or (or ?v_202 ?v_65) ?v_242)) (or (or P8 ?v_251) ?v_188)) (or (or ?v_40 ?v_243) ?v_137)) (or (or ?v_125 ?v_228) ?v_96)) (or ?v_255 ?v_217)) (or (or ?v_100 ?v_135) ?v_208)) (or (or ?v_183 ?v_111) ?v_41)) (or (or ?v_10 ?v_117) ?v_42)) (or (or ?v_178 ?v_96) ?v_47)) (or (or ?v_237 ?v_153) P15)) (or (or ?v_8 ?v_145) ?v_202)) (or (or ?v_89 ?v_171) ?v_165)) (or (or ?v_154 ?v_55) ?v_229)) (or (or ?v_249 ?v_80) ?v_116)) (or (or ?v_132 ?v_124) ?v_175)) (or (or ?v_219 ?v_162) ?v_256)) (or (or ?v_248 ?v_65) P28)) (or (or ?v_51 ?v_95) ?v_170)) (or (or ?v_72 P14) P10)) (or (or P10 ?v_124) P42)) (or (or P13 ?v_9) ?v_144)) (or (or ?v_122 ?v_178) ?v_257)) (or (or ?v_145 ?v_156) ?v_2)) (or (or ?v_226 ?v_124) ?v_248)) (or (or ?v_147 ?v_59) ?v_44)) (or (or ?v_239 ?v_15) ?v_99)) (or (or ?v_29 P12) ?v_258)) (or (or ?v_170 ?v_233) P0)) (or (or ?v_74 ?v_95) P2)) (or (or ?v_84 ?v_109) ?v_94)) (or (or ?v_126 ?v_114) P34)) (or (or ?v_240 ?v_208) ?v_85)) (or (or P13 ?v_196) ?v_99)) (or (or ?v_54 P7) ?v_131)) (or (or P21 ?v_89) ?v_95)) (or (or ?v_38 P8) P37)) (or (or ?v_246 ?v_68) ?v_21)) (or (or ?v_171 P36) ?v_252)) (or (or ?v_37 P4) ?v_36)) (or (or ?v_37 ?v_226) ?v_48)) (or (or ?v_22 ?v_160) ?v_53)) (or (or ?v_241 ?v_136) ?v_193)) (or (or ?v_208 ?v_127) P47)) (or (or ?v_249 ?v_167) P31)) (or (or ?v_15 ?v_195) ?v_146)) (or (or ?v_153 ?v_168) ?v_117)) (or (or P31 P49) ?v_134)) (or (or ?v_218 ?v_107) P36)) (or (or ?v_141 ?v_59) ?v_218)) (or (or ?v_189 ?v_107) ?v_110)) (or (or ?v_241 ?v_226) ?v_165)) (or (or ?v_211 P32) ?v_125)) (or (or ?v_51 ?v_259) ?v_236)) (or (or ?v_110 ?v_141) P3)) (or (or ?v_74 ?v_205) ?v_202)) (or (or ?v_248 ?v_170) ?v_222)) (or (or ?v_148 ?v_105) ?v_110)) (or (or ?v_183 P35) ?v_240)) (or (or ?v_91 ?v_187) ?v_41)) (or (or P40 ?v_250) ?v_89)) (or (or ?v_124 ?v_258) ?v_190)) (or (or P22 ?v_28) ?v_134)) (or (or P9 ?v_182) ?v_84)))))))))))))))))))))))))))))))))))))
(check-sat)
(exit)
